benchmarks_vrp/CMT4/tsp_classic/CMT4_6.vrp
NAME: CMT4_6
TYPE: CVRP
COMMENT: 1028.42 - Cluster Nr.6
DIMENSION: 14
CAPACITY: 200
EDGE_WEIGHT_TYPE: EUC_2D
NODE_COORD_TYPE: TWOD_COORDS
NODE_COORD_SECTION: 
6 48 28
2 49 42
11 56 37
1 45 30
5 45 35
3 52 41
7 35 35
13 52 33
4 40 30
9 56 37
12 50 35
8 40 25
14 41 37
10 42 41
DEPOT_SECTION: 
7
-1
DEMAND_SECTION: 
14 16
10 19
11 6
7 0
2 13
1 17
4 21
6 18
13 11
12 19
5 15
3 15
8 9
9 10
EOF
