benchmarks_vrp/CMT4/tsp_classic/CMT4_6.tour
NAME: CMT4_6 solution
TYPE: TOUR
TOUR_SECTION:
7 4 8 6 1 5 12 13 11 9 3 2 10 14 -1
-1
EOF